NAME: map4_180
TYPE: TSP
COMMENT: autogenerated using a wonderful map creator
DIMENSION: 210
EDGE_WEIGHT_TYPE: EUC_2D
NODE_COORD_SECTION
1 21.0 52.0
2 22.0 52.0
3 23.0 52.0
4 21.0 54.0
5 22.0 54.0
6 23.0 54.0
7 22.0 11.0
8 22.0 10.0
9 75.0 8.0
10 74.0 8.0
11 67.0 37.0
12 67.0 38.0
13 67.0 39.0
14 67.0 40.0
15 67.0 41.0
16 24.0 52.0
17 25.0 52.0
18 24.0 54.0
19 25.0 54.0
20 22.0 9.0
21 22.0 8.0
22 22.0 7.0
23 73.0 8.0
24 72.0 8.0
25 71.0 8.0
26 67.0 42.0
27 67.0 43.0
28 67.0 44.0
29 67.0 45.0
30 67.0 46.0
31 21.0 51.0
32 22.0 51.0
33 23.0 51.0
34 21.0 55.0
35 22.0 55.0
36 23.0 55.0
37 23.0 11.0
38 23.0 10.0
39 75.0 9.0
40 74.0 9.0
41 66.0 37.0
42 66.0 38.0
43 66.0 39.0
44 66.0 40.0
45 66.0 41.0
46 24.0 51.0
47 25.0 51.0
48 24.0 55.0
49 25.0 55.0
50 23.0 9.0
51 23.0 8.0
52 23.0 7.0
53 73.0 9.0
54 72.0 9.0
55 71.0 9.0
56 66.0 42.0
57 66.0 43.0
58 66.0 44.0
59 66.0 45.0
60 66.0 46.0
61 38.0 23.0
62 26.0 21.0
63 42.0 39.0
64 41.0 49.0
65 7.0 26.0
66 34.0 19.0
67 70.0 18.0
68 31.0 29.0
69 37.0 24.0
70 56.0 37.0
71 65.0 15.0
72 5.0 28.0
73 66.0 14.0
74 60.0 28.0
75 12.0 43.0
76 6.0 57.0
77 41.0 24.0
78 58.0 40.0
79 9.0 26.0
80 44.0 20.0
81 43.0 30.0
82 59.0 57.0
83 52.0 51.0
84 64.0 25.0
85 42.0 59.0
86 57.0 41.0
87 56.0 21.0
88 45.0 21.0
89 45.0 30.0
90 37.0 26.0
91 63.0 45.0
92 57.0 4.0
93 38.0 55.0
94 51.0 27.0
95 6.0 59.0
96 13.0 19.0
97 53.0 55.0
98 58.0 51.0
99 53.0 9.0
100 18.0 21.0
101 64.0 27.0
102 11.0 55.0
103 69.0 17.0
104 14.0 35.0
105 75.0 21.0
106 52.0 28.0
107 44.0 24.0
108 24.0 21.0
109 43.0 34.0
110 42.0 36.0
111 44.0 33.0
112 73.0 14.0
113 62.0 14.0
114 8.0 43.0
115 54.0 10.0
116 7.0 23.0
117 29.0 20.0
118 54.0 19.0
119 39.0 30.0
120 8.0 61.0
121 56.0 25.0
122 11.0 57.0
123 38.0 41.0
124 48.0 51.0
125 38.0 59.0
126 14.0 37.0
127 41.0 21.0
128 7.0 53.0
129 55.0 38.0
130 61.0 33.0
131 42.0 29.0
132 10.0 24.0
133 13.0 23.0
134 53.0 59.0
135 8.0 45.0
136 57.0 29.0
137 42.0 47.0
138 11.0 41.0
139 38.0 25.0
140 39.0 41.0
141 23.0 24.0
142 40.0 40.0
143 4.0 20.0
144 13.0 53.0
145 70.0 20.0
146 38.0 52.0
147 60.0 27.0
148 36.0 27.0
149 6.0 56.0
150 36.0 45.0
151 2.0 22.0
152 37.0 53.0
153 10.0 44.0
154 8.0 56.0
155 11.0 52.0
156 52.0 53.0
157 43.0 59.0
158 57.0 58.0
159 67.0 26.0
160 70.0 22.0
161 40.0 51.0
162 36.0 29.0
163 19.0 22.0
164 44.0 21.0
165 53.0 54.0
166 55.0 51.0
167 76.0 28.0
168 56.0 13.0
169 38.0 38.0
170 40.0 35.0
171 61.0 30.0
172 19.0 24.0
173 33.0 23.0
174 9.0 23.0
175 51.0 40.0
176 54.0 18.0
177 60.0 52.0
178 6.0 26.0
179 7.0 25.0
180 52.0 57.0
181 64.0 22.0
182 55.0 19.0
183 74.0 17.0
184 56.0 45.0
185 36.0 42.0
186 12.0 51.0
187 71.0 18.0
188 38.0 24.0
189 53.0 24.0
190 78.0 23.0
191 34.0 20.0
192 34.0 29.0
193 59.0 28.0
194 54.0 41.0
195 39.0 52.0
196 57.0 3.0
197 65.0 16.0
198 8.0 28.0
199 51.0 26.0
200 37.0 43.0
201 2.0 21.0
202 43.0 22.0
203 14.0 50.0
204 57.0 30.0
205 35.0 27.0
206 24.0 27.0
207 9.0 54.0
208 13.0 36.0
209 13.0 45.0
210 55.0 23.0
211 10.0 55.0
212 55.0 41.0
213 9.0 20.0
214 66.0 17.0
215 56.0 58.0
216 14.0 52.0
217 63.0 18.0
218 35.0 29.0
219 49.0 28.0
220 40.0 25.0
221 55.0 7.0
222 13.0 38.0
223 22.0 22.0
224 11.0 56.0
225 54.0 36.0
226 36.0 30.0
227 54.0 45.0
228 40.0 55.0
229 41.0 29.0
230 3.0 54.0
231 38.0 21.0
232 56.0 17.0
233 56.0 26.0
234 70.0 25.0
235 48.0 52.0
236 5.0 26.0
237 40.0 57.0
238 65.0 22.0
239 63.0 4.0
240 32.0 28.0
START_DEPOT_SECTION
1
2
3
4
5
6
7
8
9
10
11
12
13
14
15
16
17
18
19
20
21
22
23
24
25
26
27
28
29
30
-1
END_DEPOT_SECTION
31
32
33
34
35
36
37
38
39
40
41
42
43
44
45
46
47
48
49
50
51
52
53
54
55
56
57
58
59
60
-1
EOF
